0 0 0 0
0 1 1 0
0 2 0 0
0 3 0 0
0 4 0 5
0 5 0 7
0 6 0 13
0 7 2 7
0 8 0 4
0 9 0 19
0 10 2 4
0 11 0 7
0 12 0 13
0 13 0 8
0 14 1 19
0 15 0 9
0 16 1 15
0 17 2 14
0 18 0 13
0 19 0 12
0 20 2 19
0 21 0 21
0 22 0 19
0 23 1 23
0 24 0 21
0 25 0 26
0 26 1 26
0 27 0 28
0 28 0 25
0 29 0 31
0 30 1 31
0 31 0 33
